TYPE : Vertex Cover
DIMENSION: 23
EDGE_DATA_SECTION:
0 3
0 5
0 10
0 13
0 14
0 15
0 19
0 22
1 3
1 4
1 13
1 17
2 8
2 12
2 18
3 8
3 11
3 13
3 15
4 5
4 9
4 10
4 11
4 14
5 6
5 12
5 14
5 20
5 22
6 9
6 10
6 11
6 12
6 14
6 15
6 19
7 8
7 22
8 9
8 12
8 13
8 18
8 19
9 16
9 17
9 18
9 19
9 20
9 21
10 13
10 18
10 20
10 22
11 13
11 19
11 20
12 14
12 17
12 19
12 22
14 16
14 20
15 16
15 17
16 17
16 22
18 20
18 21
18 22
19 21
20 22
21 22
-1
VERTEX_DEGREE:
8.0 4.0 3.0 6.0 6.0 7.0 8.0 2.0 8.0 9.0 7.0 6.0 8.0 6.0 7.0 5.0 5.0 5.0 7.0 7.0 7.0 4.0 9.0
VERTEX_COVER:
3 4 5 8 9 10 11 12 13 14 15 17 18 19 22
EOF
